26
19
0 1 27 53 79 105 131 157 183 209 235 261 287 313 339 365 391 417 443
19
0 2 28 54 80 106 132 158 184 210 236 262 288 314 340 366 392 418 444
19
0 3 29 55 81 107 133 159 185 211 237 263 289 315 341 367 393 419 445
19
0 4 30 56 82 108 134 160 186 212 238 264 290 316 342 368 394 420 446
19
0 5 31 57 83 109 135 161 187 213 239 265 291 317 343 369 395 421 447
19
0 6 32 58 84 110 136 162 188 214 240 266 292 318 344 370 396 422 448
19
0 7 33 59 85 111 137 163 189 215 241 267 293 319 345 371 397 423 449
19
0 8 34 60 86 112 138 164 190 216 242 268 294 320 346 372 398 424 450
19
0 9 35 61 87 113 139 165 191 217 243 269 295 321 347 373 399 425 451
19
0 10 36 62 88 114 140 166 192 218 244 270 296 322 348 374 400 426 452
19
0 11 37 63 89 115 141 167 193 219 245 271 297 323 349 375 401 427 453
19
0 12 38 64 90 116 142 168 194 220 246 272 298 324 350 376 402 428 454
19
0 13 39 65 91 117 143 169 195 221 247 273 299 325 351 377 403 429 455
19
0 14 40 66 92 118 144 170 196 222 248 274 300 326 352 378 404 430 456
19
0 15 41 67 93 119 145 171 197 223 249 275 301 327 353 379 405 431 457
19
0 16 42 68 94 120 146 172 198 224 250 276 302 328 354 380 406 432 458
18
0 17 43 69 95 121 147 173 199 225 251 277 303 329 355 381 407 433
18
0 18 44 70 96 122 148 174 200 226 252 278 304 330 356 382 408 434
18
0 19 45 71 97 123 149 175 201 227 253 279 305 331 357 383 409 435
18
0 20 46 72 98 124 150 176 202 228 254 280 306 332 358 384 410 436
18
0 21 47 73 99 125 151 177 203 229 255 281 307 333 359 385 411 437
18
0 22 48 74 100 126 152 178 204 230 256 282 308 334 360 386 412 438
18
0 23 49 75 101 127 153 179 205 231 257 283 309 335 361 387 413 439
18
0 24 50 76 102 128 154 180 206 232 258 284 310 336 362 388 414 440
18
0 25 51 77 103 129 155 181 207 233 259 285 311 337 363 389 415 441
18
0 26 52 78 104 130 156 182 208 234 260 286 312 338 364 390 416 442
